NAME : XML100_1376_15
DIMENSION : 101
NB_CLUSTERS : 3
CLUSTERING_ALG : DBSCAN
CLUSTERING_PARAMS : eps(146), minSamples(3)
CLUSTERS
1 0
2 1 3 5 7 9 11 16 17 19 21 29 31 35 41 42 43 48 53 56 57 60 63 69 75 76 79 81 82 83 90 91 93 98
3 2 4 6 8 10 12 13 14 15 18 20 22 23 24 25 26 27 28 30 32 33 34 36 37 38 39 40 44 45 46 47 49 50 51 52 54 55 58 59 61 62 64 65 66 67 68 70 71 72 73 74 77 78 80 84 85 86 87 88 89 92 94 95 96 97 99 100
EOF